NAME : 	test	
COMMENT : 	"Generated by Jonas Schrader"	
TYPE : 	CPDVRP	
DIMENSION : 	33	
EDGE_WEIGHT_TYPE : 	EUC_2D	
CAPACITY : 	8	
NODE_COORD_SECTION		
1	691	729	1	1
2	174	325	18	-1
3	49	34	19	-1
4	543	815	20	-1
5	42	920	21	-1
6	545	80	22	-1
7	681	950	23	-1
8	870	118	24	-1
9	787	220	25	-1
10	537	927	26	-1
11	180	838	27	-1
12	543	582	28	-1
13	442	620	29	-1
14	747	569	30	-1
15	932	48	31	-1
16	14	356	32	-1
17	53	476	33	-1
18	373	37	-1	2
19	859	142	-1	3
20	489	543	-1	4
21	37	771	-1	5
22	354	944	-1	6
23	96	62	-1	7
24	326	729	-1	8
25	881	541	-1	9
26	653	724	-1	10
27	226	759	-1	11
28	481	44	-1	12
29	100	882	-1	13
30	129	299	-1	14
31	989	512	-1	15
32	600	42	-1	16
33	538	772	-1	17
DEMAND_SECTION		
1	0
2	1
3	1
4	1
5	1
6	1
7	1
8	1
9	1
10	1
11	1
12	1
13	1
14	1
15	1
16	1
17	1
18	-1
19	-1
20	-1
21	-1
22	-1
23	-1
24	-1
25	-1
26	-1
27	-1
28	-1
29	-1
30	-1
31	-1
32	-1
33	-1
DEPOT_SECTION	
	1
	-1
EOF	
